c "542335.clq"
p edge 139 540
e 1 5
e 1 6
e 1 7
e 1 9
e 1 10
e 1 12
e 1 16
e 1 25
e 1 30
e 1 44
e 1 46
e 1 47
e 1 48
e 1 80
e 1 93
e 1 97
e 1 116
e 1 122
e 1 123
e 1 136
e 2 5
e 2 6
e 2 14
e 2 31
e 2 46
e 2 72
e 2 92
e 2 94
e 3 5
e 3 6
e 3 7
e 3 11
e 3 12
e 3 17
e 3 22
e 3 23
e 3 26
e 3 33
e 3 39
e 3 54
e 3 58
e 3 65
e 3 83
e 3 86
e 3 116
e 3 119
e 3 129
e 4 5
e 4 8
e 4 21
e 4 53
e 5 6
e 5 7
e 5 8
e 5 9
e 5 10
e 5 11
e 5 13
e 5 14
e 5 16
e 5 18
e 5 20
e 5 22
e 5 26
e 5 27
e 5 32
e 5 34
e 5 35
e 5 46
e 5 55
e 5 56
e 5 63
e 5 68
e 5 72
e 5 76
e 5 81
e 5 88
e 5 89
e 5 98
e 5 110
e 5 120
e 5 126
e 5 128
e 5 133
e 6 7
e 6 8
e 6 9
e 6 13
e 6 15
e 6 20
e 6 22
e 6 27
e 6 29
e 6 31
e 6 39
e 6 42
e 6 43
e 6 45
e 6 49
e 6 52
e 6 56
e 6 64
e 6 66
e 6 78
e 6 82
e 6 84
e 6 86
e 6 92
e 6 96
e 6 99
e 6 100
e 6 114
e 6 115
e 6 118
e 6 121
e 6 138
e 7 8
e 7 9
e 7 10
e 7 12
e 7 13
e 7 15
e 7 17
e 7 19
e 7 20
e 7 22
e 7 23
e 7 24
e 7 28
e 7 31
e 7 34
e 7 36
e 7 42
e 7 50
e 7 54
e 7 68
e 7 70
e 7 73
e 7 74
e 7 77
e 7 85
e 7 101
e 7 102
e 7 104
e 7 114
e 7 115
e 7 133
e 8 10
e 8 11
e 8 13
e 8 19
e 8 26
e 8 27
e 8 28
e 8 30
e 8 33
e 8 34
e 8 35
e 8 57
e 8 59
e 8 70
e 8 75
e 8 76
e 8 91
e 8 98
e 8 106
e 8 113
e 8 126
e 8 127
e 8 128
e 9 12
e 9 14
e 9 15
e 9 16
e 9 18
e 9 21
e 9 24
e 9 25
e 9 28
e 9 32
e 9 38
e 9 39
e 9 42
e 9 61
e 9 63
e 9 81
e 9 82
e 9 86
e 9 88
e 9 91
e 9 98
e 9 112
e 9 133
e 10 11
e 10 19
e 10 21
e 10 25
e 10 30
e 10 33
e 10 40
e 10 41
e 10 48
e 10 49
e 10 50
e 10 51
e 10 67
e 10 75
e 10 84
e 10 92
e 10 93
e 10 105
e 10 117
e 10 127
e 10 129
e 10 130
e 11 23
e 11 75
e 12 16
e 12 17
e 12 18
e 12 24
e 12 26
e 12 28
e 12 31
e 12 35
e 12 37
e 12 38
e 12 48
e 12 50
e 12 51
e 12 64
e 12 69
e 12 77
e 12 88
e 12 97
e 12 99
e 12 102
e 12 103
e 12 131
e 12 137
e 13 14
e 13 15
e 13 33
e 13 43
e 13 55
e 13 63
e 13 68
e 13 91
e 13 115
e 13 118
e 14 17
e 14 24
e 14 29
e 14 32
e 14 44
e 14 47
e 14 53
e 14 57
e 14 85
e 14 105
e 14 108
e 14 109
e 14 123
e 14 137
e 15 71
e 15 89
e 15 100
e 16 67
e 16 90
e 16 120
e 17 18
e 17 19
e 17 21
e 17 23
e 17 34
e 17 36
e 17 44
e 17 49
e 17 52
e 17 60
e 17 61
e 17 67
e 17 68
e 17 72
e 17 76
e 17 81
e 17 127
e 18 90
e 18 100
e 18 118
e 19 20
e 19 25
e 19 40
e 19 45
e 19 49
e 19 74
e 19 84
e 19 101
e 19 106
e 19 135
e 20 87
e 20 105
e 21 61
e 21 78
e 21 111
e 21 112
e 21 113
e 21 118
e 21 135
e 22 107
e 22 136
e 23 29
e 23 38
e 23 94
e 23 95
e 24 67
e 24 132
e 25 27
e 25 29
e 25 42
e 25 45
e 25 47
e 25 51
e 25 52
e 25 56
e 25 66
e 25 78
e 25 90
e 25 100
e 25 104
e 25 128
e 25 139
e 26 36
e 26 38
e 26 41
e 26 61
e 26 109
e 26 135
e 27 32
e 27 40
e 27 45
e 27 62
e 27 66
e 27 71
e 27 73
e 27 122
e 28 30
e 28 39
e 28 43
e 29 37
e 29 63
e 29 85
e 29 131
e 30 41
e 30 48
e 30 72
e 30 136
e 31 37
e 31 54
e 31 58
e 31 69
e 31 82
e 31 109
e 32 36
e 32 55
e 32 64
e 32 76
e 32 91
e 32 104
e 33 35
e 33 43
e 33 53
e 33 70
e 33 103
e 34 41
e 34 58
e 34 62
e 34 87
e 34 110
e 34 131
e 35 37
e 35 71
e 35 77
e 36 40
e 36 44
e 36 51
e 36 80
e 36 83
e 36 95
e 36 132
e 37 66
e 37 117
e 37 122
e 39 54
e 39 65
e 39 105
e 40 46
e 41 47
e 41 80
e 41 103
e 41 107
e 41 124
e 41 139
e 42 57
e 42 60
e 42 102
e 42 119
e 42 125
e 42 137
e 43 53
e 43 62
e 43 73
e 43 78
e 43 79
e 43 90
e 43 101
e 43 111
e 44 52
e 44 56
e 44 79
e 45 60
e 45 75
e 45 77
e 45 89
e 45 93
e 45 94
e 45 121
e 46 79
e 46 96
e 47 108
e 47 126
e 48 50
e 48 59
e 48 96
e 48 129
e 49 59
e 49 65
e 49 97
e 49 136
e 49 138
e 50 59
e 50 113
e 50 114
e 51 64
e 52 116
e 53 125
e 54 55
e 54 62
e 54 71
e 54 95
e 54 97
e 54 106
e 54 134
e 55 57
e 55 58
e 55 69
e 55 131
e 56 65
e 56 117
e 56 139
e 57 87
e 57 119
e 58 79
e 59 60
e 59 84
e 59 86
e 59 130
e 60 104
e 60 139
e 61 69
e 62 107
e 63 128
e 65 135
e 66 92
e 68 70
e 68 87
e 68 107
e 68 108
e 68 120
e 69 83
e 69 94
e 69 101
e 70 74
e 71 73
e 71 80
e 71 81
e 71 83
e 71 95
e 71 117
e 71 130
e 72 98
e 72 113
e 73 74
e 73 119
e 74 130
e 75 82
e 75 93
e 75 108
e 75 109
e 75 115
e 75 121
e 76 106
e 79 99
e 79 110
e 80 103
e 80 112
e 80 126
e 81 85
e 81 102
e 81 111
e 81 123
e 83 88
e 85 96
e 85 124
e 86 89
e 91 99
e 91 116
e 92 124
e 94 125
e 95 132
e 96 129
e 97 134
e 100 125
e 100 127
e 101 111
e 103 134
e 104 110
e 105 121
e 108 114
e 110 122
e 110 124
e 111 112
e 116 120
e 116 123
e 117 137
e 122 132
e 126 133
e 126 134
e 127 138
e 131 138
